# Energy minimization script with class2 ff for simulated polymerization

# System
units            real
atom_style       full
dimension        3
newton           on
boundary         p p p

# Styles
pair_style       lj/class2/coul/long 15.0
pair_modify      shift yes mix sixthpower
kspace_style     ewald 1.0e-4
bond_style       class2
angle_style      class2
dihedral_style   class2
improper_style   class2
special_bonds    lj 0 0 1 coul 0 0 1

# Data file input
read_data        data.lmps

# Settings
dielectric       1.0
neighbor         2.0 bin
neigh_modify     delay 0 every 1 check yes
timestep         1.0
run_style        verlet

# Output
thermo_style     custom step vol temp press etotal pe ke evdwl ecoul ebond eangle edihed eimp
thermo           100

# Minimization Step
min_style        sd
minimize         1.0e-3 1.0e-3 1000 100000
min_style        cg
min_modify       line quadratic
minimize         1.0e-4 1.0e-4 1000 100000

# Data file output
write_data       min.lmps
